headline_hunt/bets/programmatic_sat_propagator/results/phase2c_rule4r61_2026-04-25/with_rules.log
Loaded varmap: 56 (reg,round) entries, total_vars=12816
Conflict limit: 50000
Cascade-zero targets: 352 SAT vars observed, 0 bits already const-false
Rule 5  (dc_63 = dg_63): 32 bit-pairs registered
Rule 4@r=61 (dA[61] = dE[61]): 32 bit-pairs registered
Propagator connected: 352 cascade-zero vars + 128 Rule-5 vars observed
Loaded 53698 clauses from headline_hunt/bets/programmatic_sat_propagator/results/phase2c_rule4r61_2026-04-25/aux_expose_sr61_n32_bit10.cnf
Solving with cascade propagator...

Result: 0 (10=SAT, 20=UNSAT, 0=UNKNOWN)
Propagator stats:
  notify_assignment events: 483
  cb_propagate fires:       416
    of which Rule 5 fires:  32
    of which Rule 4@r=61:   32
  decisions:                373061
  backtracks:               58716
s UNKNOWN
